unsat
(a11_11$2@ a11_11$1@ a11_5$0@ a5_0$3@ a5_0$1@ a4_11$2@ a4_8$0@ obs-10-6 obs-9-7 obs-8-4 obs-8-3 obs-7-9 obs-7-3 obs-7-2 obs-6-10 obs-6-7 obs-6-6 obs-4-7 obs-4-3 obs-4-1 obs-1-8 obs-2-8)
(error "line 404383 column 10: model is not available")
